Route #1: 63 145 109 143 135 141 150 148 87 142 144
Route #2: 47 55 134 67 13 136 40 88 93 65 107 44 108
Route #3: 56 146 4 149 111 66 41 94 19 64 42 92 137 147 17
Route #4: 103 5 12
Route #5: 90 71 123 122 124 106 73 125 33 72 91 45 15 52 37
Route #6: 38 9 104 30 105 75 117 89 39 54 10 49 76
Route #7: 62 118 130 50 34 74 79 21 53 127 16 126 78
Route #8: 11 100 2 83 131 20 59 3 101 22 51 32
Route #9: 119 1 120 80 70 28 116 121 115 36 85 35 84 128 29 129
Route #10: 77 27 81 60 8 31 82 140 113 26 112 48 138
Route #11: 68 14 96 24 97 86 43 99 114 61 7 69 23 57 46
Route #12: 139 18 110 133 25 95 58 132 98 6 102
Cost 1015
